\* The_Brewery_Problem *\
Minimize
OBJ: - 13 Ale - 23 Beer
Subject To
Corn_availability: 5 Ale + 15 Beer <= 480
Hops_availability: 4 Ale + 4 Beer <= 160
Malt_availability: 35 Ale + 20 Beer <= 1190
End
